Medium-instances_NetworkFacilityLocation/2023-03-27_20hr-25min-09sec/Nodes10_Arcs35_LocNodes8/Formulation-1Instance-5.lp
\ Model LocPrice
\ LP format - for model browsing. Use MPS format to capture full model detail.
Maximize
  - 185 x[1] - 157 x[2] - 180 x[5] - 170 x[6] - 173 x[7] - 176 x[8]
   - 164 x[9] - 185 x[10] - 3.16687939601796 Q[1] - 3.289526547426832 Q[2]
   - 3.757141505553756 Q[5] - 3.518447688889805 Q[6]
   - 4.232419261849138 Q[7] - 4.389108776968237 Q[8]
   - 4.407788610599597 Q[9] - 4.547772126580389 Q[10] + [ 2 pi[1] * Q[1]
   + 2 pi[2] * Q[2] + 2 pi[5] * Q[5] + 2 pi[6] * Q[6] + 2 pi[7] * Q[7]
   + 2 pi[8] * Q[8] + 2 pi[9] * Q[9] + 2 pi[10] * Q[10] ] / 2 
Subject To
 R0: Q[1] + Q[2] + Q[5] + Q[6] + Q[7] + Q[8] + Q[9] + Q[10] <= 700
 R1: - 146 x[1] + Q[1] <= 0
 R2: - 126 x[2] + Q[2] <= 0
 R3: - 161 x[5] + Q[5] <= 0
 R4: - 190 x[6] + Q[6] <= 0
 R5: - 155 x[7] + Q[7] <= 0
 R6: - 193 x[8] + Q[8] <= 0
 R7: - 113 x[9] + Q[9] <= 0
 R8: - 144 x[10] + Q[10] <= 0
 node[8]: - Q[8] + f[8,1] + f[8,10] + f[8,5] + f[8,2] - f[2,8] - S[8] = 0
 node[10]: - Q[10] + f[10,5] + f[10,9] - f[8,10] - f[2,10] + f[10,3]
   + f[10,7] - f[4,10] - f[3,10] - S[10] = 0
 node[6]: - Q[6] + f[6,3] - f[7,6] + f[6,5] - f[9,6] - f[5,6] + f[6,1]
   + f[6,7] - S[6] = 0
 node[7]: - Q[7] + f[7,6] + f[7,4] + f[7,2] + f[7,9] - f[10,7] - f[1,7]
   - f[6,7] - S[7] = 0
 node[9]: - Q[9] + f[9,2] - f[10,9] + f[9,6] - f[7,9] + D[9] = 0
 node[2]: - Q[2] + f[2,1] - f[3,2] - f[5,2] - f[9,2] + f[2,10] - f[7,2]
   - f[8,2] + f[2,8] - f[1,2] + D[2] = 0
 node[5]: - Q[5] + f[5,2] - f[10,5] - f[6,5] - f[4,5] - f[8,5] + f[5,4]
   + f[5,6] + f[5,3] - f[1,5] + D[5] = 0
 node[1]: - Q[1] - f[2,1] - f[4,1] - f[8,1] + f[1,4] + f[1,3] - f[6,1]
   + f[1,7] + f[1,2] + f[1,5] + D[1] - S[1] = 0
 node[4]: f[4,1] - f[7,4] + f[4,5] - f[1,4] - f[5,4] + f[4,10] = 0
 node[3]: f[3,2] - f[6,3] - f[10,3] - f[1,3] - f[5,3] + f[3,10] + D[3] = 0
 Cost_Flow[2,1]: - pi[1] + pi[2] + 0.3504725914512006 f[2,1] - mu_f[2,1]
   = -2.09226946798208
 Cost_Flow[3,2]: - pi[2] + pi[3] + 1.492627870296749 f[3,2] - mu_f[3,2]
   = -0.2861071444744329
 Cost_Flow[4,1]: - pi[1] + pi[4] + 0.4920977793603629 f[4,1] - mu_f[4,1]
   = -2.952359040277311
 Cost_Flow[5,2]: - pi[2] + pi[5] + 1.072004887119804 f[5,2] - mu_f[5,2]
   = -0.8697656881256467
 Cost_Flow[6,3]: - pi[3] + pi[6] + 0.4423291480639793 f[6,3] - mu_f[6,3]
   = -1.339164978548494
 Cost_Flow[7,6]: - pi[6] + pi[7] + 1.624349261233202 f[7,6] - mu_f[7,6]
   = -0.9117244734261805
 Cost_Flow[8,1]: - pi[1] + pi[8] + 0.2157889452462634 f[8,1] - mu_f[8,1]
   = -0.1196968839635379
 Cost_Flow[9,2]: - pi[2] + pi[9] + 0.8616756791713471 f[9,2] - mu_f[9,2]
   = -0.7335995926035386
 Cost_Flow[10,5]: - pi[5] + pi[10] + 1.267437033571788 f[10,5] - mu_f[10,5]
   = -0.9810039312416484
 Cost_Flow[7,4]: - pi[4] + pi[7] + 0.7793196085661074 f[7,4] - mu_f[7,4]
   = -2.32102830388083
 Cost_Flow[6,5]: - pi[5] + pi[6] + 0.514174317045563 f[6,5] - mu_f[6,5]
   = -1.37117089555106
 Cost_Flow[10,9]: - pi[9] + pi[10] + 1.357550308274939 f[10,9] - mu_f[10,9]
   = -1.806478972778685
 Cost_Flow[4,5]: pi[4] - pi[5] + 0.9633443365187169 f[4,5] - mu_f[4,5]
   = -1.167018918990616
 Cost_Flow[8,10]: pi[8] - pi[10] + 1.626269975389832 f[8,10] - mu_f[8,10]
   = -1.073034006692334
 Cost_Flow[2,10]: pi[2] - pi[10] + 1.080768310073182 f[2,10] - mu_f[2,10]
   = -2.476128258714354
 Cost_Flow[8,5]: - pi[5] + pi[8] + 1.475928335084441 f[8,5] - mu_f[8,5]
   = -0.1654068846597641
 Cost_Flow[9,6]: - pi[6] + pi[9] + 1.042941348468245 f[9,6] - mu_f[9,6]
   = -0.3707205257766145
 Cost_Flow[7,2]: - pi[2] + pi[7] + 0.7426195450154158 f[7,2] - mu_f[7,2]
   = -0.8689652763911746
 Cost_Flow[10,3]: - pi[3] + pi[10] + 1.130980311326911 f[10,3] - mu_f[10,3]
   = -1.897302149132887
 Cost_Flow[1,4]: pi[1] - pi[4] + 0.6347569909303741 f[1,4] - mu_f[1,4]
   = -2.96047363828584
 Cost_Flow[7,9]: pi[7] - pi[9] + 0.1282086003159795 f[7,9] - mu_f[7,9]
   = -1.147594184663454
 Cost_Flow[10,7]: - pi[7] + pi[10] + 1.759531977405584 f[10,7] - mu_f[10,7]
   = -1.07699030749071
 Cost_Flow[1,3]: pi[1] - pi[3] + 0.3670858944771647 f[1,3] - mu_f[1,3]
   = -1.183125735350522
 Cost_Flow[8,2]: - pi[2] + pi[8] + 0.0491666655358587 f[8,2] - mu_f[8,2]
   = -0.4636459177040929
 Cost_Flow[5,4]: - pi[4] + pi[5] + 1.946525320227449 f[5,4] - mu_f[5,4]
   = -2.681668077684265
 Cost_Flow[5,6]: pi[5] - pi[6] + 0.0622073061319039 f[5,6] - mu_f[5,6]
   = -0.5569380415863143
 Cost_Flow[6,1]: - pi[1] + pi[6] + 1.929925841018859 f[6,1] - mu_f[6,1]
   = -1.385233573883955
 Cost_Flow[4,10]: pi[4] - pi[10] + 0.3737557187134202 f[4,10] - mu_f[4,10]
   = -2.555281352827863
 Cost_Flow[1,7]: pi[1] - pi[7] + 1.412803681046439 f[1,7] - mu_f[1,7]
   = -1.870197507598803
 Cost_Flow[2,8]: pi[2] - pi[8] + 0.1812630799037807 f[2,8] - mu_f[2,8]
   = -0.1869222262078416
 Cost_Flow[1,2]: pi[1] - pi[2] + 0.4791950179959716 f[1,2] - mu_f[1,2]
   = -0.6464468837593789
 Cost_Flow[6,7]: pi[6] - pi[7] + 1.80639045716746 f[6,7] - mu_f[6,7]
   = -0.534785313908701
 Cost_Flow[5,3]: - pi[3] + pi[5] + 0.5902279063681439 f[5,3] - mu_f[5,3]
   = -1.652209376926902
 Cost_Flow[1,5]: pi[1] - pi[5] + 0.5168453951110967 f[1,5] - mu_f[1,5]
   = -0.6805973388023511
 Cost_Flow[3,10]: pi[3] - pi[10] + 1.563729584469201 f[3,10] - mu_f[3,10]
   = -1.620732661399564
 Cost_Demand[1]: pi[1] + 3.465346738783504 D[1] - mu_D[1] = 1483
 Cost_Demand[2]: pi[2] + 3.169709314695901 D[2] - mu_D[2] = 1403
 Cost_Demand[3]: pi[3] + 3.497046178561318 D[3] - mu_D[3] = 1355
 Cost_Demand[5]: pi[5] + 3.070621983275075 D[5] - mu_D[5] = 1446
 Cost_Demand[9]: pi[9] + 3.016783208452933 D[9] - mu_D[9] = 1330
 Cost_Supply[1]: - pi[1] + 0.3562475280923529 S[1] - mu_S[1]
   = -1.575170751411068
 Cost_Supply[6]: - pi[6] + 0.3593840562237162 S[6] - mu_S[6]
   = -1.069564761836687
 Cost_Supply[7]: - pi[7] + 0.9111427970945549 S[7] - mu_S[7]
   = -1.930793059708326
 Cost_Supply[8]: - pi[8] + 0.8892357429972197 S[8] - mu_S[8]
   = -1.198823139367467
 Cost_Supply[10]: - pi[10] + 0.6104028315724404 S[10] - mu_S[10]
   = -1.529406006113079
Bounds
Binaries
 x[1] x[2] x[5] x[6] x[7] x[8] x[9] x[10]
SOS
 s0:  S1 :: f[2,1]:1 mu_f[2,1]:2
 s1:  S1 :: f[3,2]:1 mu_f[3,2]:2
 s2:  S1 :: f[4,1]:1 mu_f[4,1]:2
 s3:  S1 :: f[5,2]:1 mu_f[5,2]:2
 s4:  S1 :: f[6,3]:1 mu_f[6,3]:2
 s5:  S1 :: f[7,6]:1 mu_f[7,6]:2
 s6:  S1 :: f[8,1]:1 mu_f[8,1]:2
 s7:  S1 :: f[9,2]:1 mu_f[9,2]:2
 s8:  S1 :: f[10,5]:1 mu_f[10,5]:2
 s9:  S1 :: f[7,4]:1 mu_f[7,4]:2
 s10:  S1 :: f[6,5]:1 mu_f[6,5]:2
 s11:  S1 :: f[10,9]:1 mu_f[10,9]:2
 s12:  S1 :: f[4,5]:1 mu_f[4,5]:2
 s13:  S1 :: f[8,10]:1 mu_f[8,10]:2
 s14:  S1 :: f[2,10]:1 mu_f[2,10]:2
 s15:  S1 :: f[8,5]:1 mu_f[8,5]:2
 s16:  S1 :: f[9,6]:1 mu_f[9,6]:2
 s17:  S1 :: f[7,2]:1 mu_f[7,2]:2
 s18:  S1 :: f[10,3]:1 mu_f[10,3]:2
 s19:  S1 :: f[1,4]:1 mu_f[1,4]:2
 s20:  S1 :: f[7,9]:1 mu_f[7,9]:2
 s21:  S1 :: f[10,7]:1 mu_f[10,7]:2
 s22:  S1 :: f[1,3]:1 mu_f[1,3]:2
 s23:  S1 :: f[8,2]:1 mu_f[8,2]:2
 s24:  S1 :: f[5,4]:1 mu_f[5,4]:2
 s25:  S1 :: f[5,6]:1 mu_f[5,6]:2
 s26:  S1 :: f[6,1]:1 mu_f[6,1]:2
 s27:  S1 :: f[4,10]:1 mu_f[4,10]:2
 s28:  S1 :: f[1,7]:1 mu_f[1,7]:2
 s29:  S1 :: f[2,8]:1 mu_f[2,8]:2
 s30:  S1 :: f[1,2]:1 mu_f[1,2]:2
 s31:  S1 :: f[6,7]:1 mu_f[6,7]:2
 s32:  S1 :: f[5,3]:1 mu_f[5,3]:2
 s33:  S1 :: f[1,5]:1 mu_f[1,5]:2
 s34:  S1 :: f[3,10]:1 mu_f[3,10]:2
 s35:  S1 :: D[1]:1 mu_D[1]:2
 s36:  S1 :: D[2]:1 mu_D[2]:2
 s37:  S1 :: D[3]:1 mu_D[3]:2
 s38:  S1 :: D[5]:1 mu_D[5]:2
 s39:  S1 :: D[9]:1 mu_D[9]:2
 s40:  S1 :: S[1]:1 mu_S[1]:2
 s41:  S1 :: S[6]:1 mu_S[6]:2
 s42:  S1 :: S[7]:1 mu_S[7]:2
 s43:  S1 :: S[8]:1 mu_S[8]:2
 s44:  S1 :: S[10]:1 mu_S[10]:2
End
